p tw 92 99
1 2
2 13
3 4
4 5
5 6
5 82
6 7
7 8
7 76
8 9
9 10
10 11
10 71
11 12
12 14
13 24
13 46
14 15
15 16
15 20
16 17
17 18
18 19
19 88
20 21
21 22
22 23
23 25
24 35
25 26
26 27
26 59
27 28
28 29
29 30
30 31
31 32
32 33
33 34
34 36
35 88
36 37
37 38
38 39
39 40
40 41
41 42
42 43
43 44
44 45
45 47
46 57
47 48
48 49
49 50
50 51
50 61
51 52
52 53
53 54
54 55
55 56
56 58
57 68
58 61
59 60
60 61
61 62
62 63
63 64
64 65
64 88
65 66
66 67
67 69
68 79
69 70
70 88
71 72
72 73
73 74
74 75
75 88
76 77
77 78
78 80
79 90
80 81
81 88
82 83
83 84
84 85
85 86
86 87
87 88
88 89
89 91
90 3
91 92
